NAME : problems/40-tsp/instance-2.tsp
COMMENT : No Comment
TYPE : TSP
DIMENSION: 40
EDGE_WEIGHT_TYPE : EUC_2D
NODE_COORD_SECTION
1 7480 4125 
2 5323 5067 
3 8314 6967 
4 8776 2752 
5 2017 3631 
6 7696 5755 
7 3691 3867 
8 5371 7685 
9 1505 3936 
10 159 5578 
11 5845 1667 
12 1367 7604 
13 9762 8598 
14 1036 5808 
15 4256 2210 
16 6060 3491 
17 3962 1810 
18 8567 818 
19 8339 9855 
20 7929 6231 
21 4275 6751 
22 1176 5605 
23 4593 9761 
24 2131 5314 
25 7731 1561 
26 9705 9266 
27 6210 7173 
28 754 4094 
29 4581 2807 
30 3749 9512 
31 2981 2955 
32 5547 5032 
33 7674 9270 
34 7330 3518 
35 424 4416 
36 2393 3782 
37 3818 5870 
38 2919 6879 
39 8127 3316 
40 9994 7682 
EOF
